CMD:
./solvers/bin/cadical --plain --no-reduce -t 1600 ./data/cnfs//arbitrated_top_n2_w8_d32_e0/arbitrated_top_n2_w8_d32_e0.87.cnf

c --- [ banner ] -------------------------------------------------------------
c 
c CaDiCaL SAT Solver
c Copyright (c) 2016-2024
c A. Biere, M. Fleury, N. Froleyks, K. Fazekas, F. Pollitt, T. Faller
c JKU Linz, University of Freiburg, TU Wien
c 
c Version 2.1.3 5296d3d2a9bf48c154ab2acb5e44625776d821bf
c g++ (Gentoo 12.3.1_p20230526 p2) 12.3.1 20230526 -Wall -Wextra -O3 -DNDEBUG
c Sat Aug 9 07:26:21 PDT 2025 Linux cedar2.int.cedar.computecanada.ca 5.14.0-362.24.2.el9_3.x86_64 x86_64
c 
c --- [ limit ] --------------------------------------------------------------
c 
c setting time limit to 1600 seconds real time (due to '-t 1600')
c 
c --- [ parsing input ] ------------------------------------------------------
c 
c reading DIMACS file from './data/cnfs//arbitrated_top_n2_w8_d32_e0/arbitrated_top_n2_w8_d32_e0.87.cnf'
c opening file to read './data/cnfs//arbitrated_top_n2_w8_d32_e0/arbitrated_top_n2_w8_d32_e0.87.cnf'
c found 'p cnf 324521 965273' header
c parsed 965273 clauses in 0.14 seconds process time
c 
c --- [ options ] ------------------------------------------------------------
c 
c   --compact=false                (different from default 'true')
c   --decompose=false              (different from default 'true')
c   --deduplicate=false            (different from default 'true')
c   --elim=false                   (different from default 'true')
c   --probe=false                  (different from default 'true')
c   --reduce=false                 (different from default 'true')
c   --subsume=false                (different from default 'true')
c   --ternary=false                (different from default 'true')
c   --transred=false               (different from default 'true')
c   --vivify=false                 (different from default 'true')
c 
c --- [ solving ] ------------------------------------------------------------
c 
c time measured in process time since initialization
c 
c  seconds   reductions  redundant  irredundant
c          MB    restarts       trail       variables
c           level   conflicts       glue          remaining
c 
c *  0.14 136  0 0   0    0    0  0% 0 792520 199283 61%
c {  0.17 139  0 0   0    0    0  0% 0 792520 199283 61%
c i  0.30 139 1217 0   0  251  250 72% 2 792520 199220 61%
c i  0.32 139 1330 0   7  415  396 76% 2 792520 199157 61%
c i  0.33 139 1301 0   9  428  405 75% 2 792520 199148 61%
c i  0.33 139 1298 0   9  429  405 75% 2 792520 199105 61%
c i  0.36 139 1267 0  13  443  417 75% 2 792520 198788 61%
c i  0.50 139 659 0 114  939  880 61% 2 792520 198593 61%
c i  0.50 139 658 0 114  940  880 61% 2 792520 198524 61%
c i  0.51 139 635 0 114  984  918 60% 2 792520 198516 61%
c }  0.51 139 627 0 114 1000  932 60% 2 792520 198516 61%
c [  0.51 139  0 0 114 1000  932  0% 0 792520 198516 61%
c i  0.51 139 746 0 114 1001  932 49% 0 792520 198515 61%
c O  0.51 139 694 0 114 1002  933 48% 1 792520 198515 61%
c ]  0.55 139 694 0 114 1002  933 48% 1 792520 198515 61%
c 1  0.55 139 694 0 114 1002  933 48% 1 792520 198515 61%
c 
c --- [ result ] -------------------------------------------------------------
c 
s SATISFIABLE
v 1 2 3 4 5 6 7 8 9 10 11 12 13 14 15 16 17 18 19 20 21 22 23 24 25 26 27 28
v 29 30 31 32 33 34 35 36 37 38 39 40 41 42 43 44 45 46 47 48 49 50 51 52 53
v 54 55 56 57 58 59 60 61 62 63 64 65 66 67 68 69 70 71 72 73 74 75 76 77 78
v 79 80 81 82 83 84 85 86 87 88 89 90 91 92 93 94 95 96 97 98 99 100 101 102
v 103 104 105 106 107 108 109 110 111 112 113 114 115 116 117 118 119 120 121
v 122 123 124 125 126 127 128 129 130 131 132 133 134 135 136 137 138 139 140
v 141 142 143 144 145 146 147 148 149 150 151 152 153 154 155 156 157 158 159
v 160 161 162 163 164 165 166 167 168 169 170 171 172 173 174 175 176 177 178
v 179 180 181 182 183 184 185 186 187 188 189 190 191 192 193 194 195 196 197
v 198 199 200 201 202 203 204 205 206 207 208 209 210 211 212 213 214 215 216
v 217 218 219 220 221 222 223 224 225 226 227 228 229 230 231 232 233 234 235
v 236 237 238 239 240 241 242 243 244 245 246 247 248 249 250 251 252 253 254
v 255 256 257 258 259 260 261 262 263 264 265 266 267 268 269 270 271 272 273
v 274 275 276 277 278 279 280 281 282 283 284 285 286 287 288 289 290 291 292
v 293 294 295 296 297 298 299 300 301 302 303 304 305 306 307 308 309 310 311
v 312 313 314 315 316 317 318 319 320 321 322 323 324 325 326 327 328 329 330
v 331 332 333 334 335 336 337 338 339 340 341 342 343 344 345 346 347 348 349
v 350 351 352 353 354 355 356 357 358 359 360 361 362 363 364 365 366 367 368
v 369 370 371 372 373 374 375 376 377 378 379 380 381 382 383 384 385 386 387
v 388 389 390 391 392 393 394 395 396 397 398 399 400 401 402 403 404 405 406
v 407 408 409 410 411 412 413 414 415 416 417 418 419 420 421 422 423 424 425
v 426 427 428 429 430 431 432 433 434 435 436 437 438 439 440 441 442 443 444
v 445 446 447 448 449 450 451 452 453 454 455 456 457 458 459 460 461 462 463
v 464 465 466 467 468 469 470 471 472 473 474 475 476 477 478 479 480 481 482
v 483 484 485 486 487 488 489 490 491 492 493 494 495 496 497 498 499 500 501
v 502 503 504 505 506 507 508 509 510 511 512 513 514 515 516 517 518 519 520
v 521 522 523 524 525 526 527 528 529 530 531 532 533 534 535 536 537 538 539
v 540 541 542 543 544 545 546 547 548 549 550 551 552 553 554 555 556 557 558
v 559 560 561 562 563 564 565 566 567 568 569 570 571 572 573 574 575 576 577
v 578 579 580 581 582 583 584 585 586 587 588 589 590 591 592 593 594 595 596
v 597 598 599 600 601 602 603 604 605 606 607 608 609 610 611 612 613 614 615
v 616 617 618 619 620 -621 -622 -623 624 625 626 627 628 629 -630 -631 -632
v 633 -634 -635 -636 -637 -638 639 -640 -641 -642 -643 -644 645 -646 -647 -648
v -649 -650 651 -652 -653 -654 -655 -656 657 -658 -659 -660 -661 -662 663 -664
... skipped 32380 lines ...
v -324051 -324052 -324053 -324054 -324055 -324056 -324057 -324058 -324059
v -324060 -324061 -324062 -324063 -324064 -324065 -324066 324067 -324068
v 324069 -324070 -324071 -324072 -324073 -324074 -324075 -324076 -324077
v -324078 -324079 -324080 -324081 -324082 -324083 -324084 -324085 -324086
v -324087 324088 -324089 324090 -324091 324092 -324093 -324094 324095 324096
v -324097 -324098 -324099 -324100 324101 -324102 -324103 -324104 -324105
v -324106 -324107 -324108 324109 -324110 -324111 -324112 324113 -324114
v -324115 324116 -324117 -324118 -324119 324120 -324121 -324122 324123 -324124
v -324125 -324126 324127 -324128 -324129 324130 -324131 324132 -324133 324134
v -324135 324136 -324137 324138 324139 -324140 324141 324142 -324143 324144
v 324145 -324146 324147 324148 -324149 324150 -324151 -324152 -324153 -324154
v -324155 -324156 -324157 -324158 -324159 -324160 -324161 -324162 -324163
v -324164 -324165 -324166 -324167 -324168 324169 -324170 324171 -324172
v -324173 -324174 -324175 -324176 -324177 -324178 -324179 -324180 -324181
v -324182 -324183 -324184 -324185 -324186 -324187 -324188 324189 -324190
v 324191 -324192 -324193 -324194 -324195 -324196 -324197 -324198 -324199
v -324200 -324201 -324202 -324203 -324204 -324205 -324206 -324207 -324208
v 324209 -324210 324211 -324212 -324213 -324214 -324215 -324216 -324217
v -324218 -324219 -324220 -324221 -324222 -324223 -324224 -324225 -324226
v -324227 -324228 -324229 324230 -324231 324232 -324233 -324234 -324235
v -324236 -324237 -324238 -324239 -324240 -324241 -324242 -324243 -324244
v -324245 -324246 -324247 -324248 -324249 324250 -324251 324252 -324253
v -324254 -324255 -324256 -324257 -324258 -324259 -324260 -324261 -324262
v -324263 -324264 -324265 -324266 -324267 -324268 -324269 324270 -324271
v 324272 -324273 -324274 -324275 -324276 -324277 -324278 -324279 -324280
v -324281 -324282 -324283 -324284 -324285 -324286 -324287 -324288 -324289
v 324290 -324291 324292 -324293 -324294 -324295 -324296 -324297 -324298
v -324299 -324300 -324301 -324302 -324303 -324304 -324305 -324306 -324307
v -324308 -324309 -324310 -324311 324312 -324313 324314 -324315 -324316
v -324317 -324318 -324319 -324320 -324321 -324322 -324323 -324324 -324325
v -324326 -324327 -324328 -324329 -324330 -324331 324332 -324333 324334
v -324335 -324336 -324337 -324338 -324339 -324340 -324341 -324342 -324343
v -324344 -324345 -324346 -324347 -324348 -324349 -324350 -324351 324352
v -324353 324354 -324355 -324356 -324357 -324358 -324359 -324360 -324361
v -324362 -324363 -324364 -324365 -324366 -324367 -324368 -324369 -324370
v -324371 -324372 324373 -324374 324375 -324376 -324377 -324378 -324379
v -324380 -324381 -324382 -324383 -324384 -324385 -324386 -324387 -324388
v -324389 -324390 -324391 -324392 324393 -324394 324395 -324396 -324397
v -324398 -324399 -324400 -324401 -324402 -324403 -324404 -324405 -324406
v -324407 -324408 -324409 -324410 -324411 -324412 324413 -324414 324415
v -324416 -324417 -324418 -324419 -324420 -324421 -324422 -324423 -324424
v -324425 -324426 -324427 -324428 -324429 -324430 -324431 -324432 -324433
v 324434 -324435 324436 -324437 -324438 -324439 -324440 -324441 -324442
v -324443 -324444 -324445 -324446 -324447 -324448 -324449 -324450 -324451
v -324452 -324453 324454 -324455 324456 -324457 -324458 324459 -324460 -324461
v -324462 324463 -324464 -324465 -324466 -324467 -324468 -324469 -324470
v 324471 -324472 -324473 -324474 324475 -324476 324477 -324478 -324479 -324480
v 324481 -324482 324483 -324484 -324485 -324486 324487 -324488 324489 -324490
v -324491 -324492 324493 324494 -324495 324496 -324497 324498 -324499 -324500
v -324501 -324502 -324503 -324504 -324505 -324506 -324507 -324508 -324509
v -324510 -324511 -324512 -324513 -324514 -324515 324516 -324517 324518
v -324519 324520 -324521 0
c 
c --- [ run-time profiling ] -------------------------------------------------
c 
c process time taken by individual solving procedures
c (percentage relative to process time for solving)
c 
c         0.41   99.97% search
c         0.34   82.88% unstable
c         0.14   34.98% parse
c         0.05   11.79% stable
c         0.02    5.29% lucky
c         0.00    0.00% simplify
c   =================================
c         0.41   71.88% solve
c 
c last line shows process time for solving
c (percentage relative to total process time)
c 
c --- [ statistics ] ---------------------------------------------------------
c 
c chronological:               510        50.90 %  of conflicts
c conflicts:                  1002      2443.01    per second
c decisions:                 22467     54777.65    per second
c fixed:                    125991        38.82 %  of all variables
c learned:                     967        96.51 %  per conflict
c learned_lits:               6568       100.00 %  learned literals
c minimized:                     0         0.00 %  learned literals
c shrunken:                   1472        22.41 %  learned literals
c minishrunken:                329         5.01 %  learned literals
c otfs:                         15         1.50 %  of conflict
c propagations:            4544886        11.08 M  per second
c rephased:                      1      1002.00    interval
c restarts:                    114         8.79    interval
c stabilizing:                   1         0.20 %  of conflicts
c subsumed:                     25         0.00 %  of all clauses
c strengthened:                 15         0.00 %  of all clauses
c 
c seconds are measured in process time for solving
c 
c --- [ resources ] ----------------------------------------------------------
c 
c total process time since initialization:         0.57    seconds
c total real time since initialization:            0.60    seconds
c maximum resident set size of process:          138.20    MB
c 
c --- [ shutting down ] ------------------------------------------------------
c 
c exit 10
